CUST NO.,LATITUDE,LONGITUDE,DEMAND,FROM TIME,TO TIME,SERVICE TIME
0,35.19807886,137.0112822,0,2000/1/1 9:00:00,2000/1/1 17:00:00,0
159,35.19576449,136.9598317,200,2000/1/1 9:00:00,2000/1/1 17:00:00,1
160,35.19558762,136.9589659,100,2000/1/1 9:00:00,2000/1/1 17:00:00,1
162,35.19658909,136.9613126,100,2000/1/1 9:00:00,2000/1/1 17:00:00,1
163,35.19491828,136.961533,200,2000/1/1 9:00:00,2000/1/1 17:00:00,1
175,35.19497796,136.9621308,200,2000/1/1 9:00:00,2000/1/1 17:00:00,1
178,35.19490613,136.9530159,200,2000/1/1 9:00:00,2000/1/1 17:00:00,1
